WARNING: for repeatability, setting FPU to use double precision
============================[ Problem Statistics ]=============================
|                                                                             |
|  Number of variables:      21185701                                         |
|  Number of clauses:        85488342                                         |
|  Parse time:                  19.78 s                                       |
|                                                                             |
c ============================[ Search Statistics ]==============================
c | Conflicts |          ORIGINAL         |          LEARNT          | Progress |
c |           |    Vars  Clauses Literals |    Limit  Clauses Lit/Cl |          |
c ===============================================================================
We had 8569 decisions of which only 0 were on extended
We had 5724191 decisions of which only 0 were on extended
c Switched to VSIDS.
c Switched to LRB.
c Switched to VSIDS.
c Switched to LRB.
c Switched to VSIDS.
c Switched to LRB.
c Switched to VSIDS.
c Switched to LRB.
c ===============================================================================
restarts                  : 56
conflicts                 : 14520          (4 /sec)
decisions                 : 11238569       (0.00 % random) (3424 /sec)
propagations              : 4123071346     (1256142 /sec)
conflict literals         : 3259035        (4.41 % deleted)

conflicts w/ DIP found    : 13142          (90.51 % of conflicts)
conflicts w/ dangerous DIP: 0              (0.00 % of conflicts)
conflicts w/ DIP-learning : 13             (0.09 % of conflicts)
decisions on ext vars     : 24             (0.00 % of decisions)
total ext vars            : 13          
tried delete ext vars     : 0           
deleted ext vars          : 0           
max ext vars              : 13          

Memory used               : 11079.00 MB
CPU time                  : 3282.33 s
DIP computation time      : 0.317532 s (0.01 % of total time)
ER_sel time               : 0.035247 s
ER_add time               : 0.000163 s
ER_delC time              : 0 s
ER_delV time              : 0 s
ER_sub time               : 0.058712 s
ER_stat time              : 0 s

INDETERMINATE
